(set-info :smt-lib-version 2.6)
(set-logic QF_UFLRA)
(set-info :source |
MathSat group

|)
(set-info :category "random")
(set-info :status sat)
(declare-fun x0 () Real)
(declare-fun x1 () Real)
(declare-fun x2 () Real)
(declare-fun x3 () Real)
(declare-fun x4 () Real)
(declare-fun x5 () Real)
(declare-fun x6 () Real)
(declare-fun x7 () Real)
(declare-fun x8 () Real)
(declare-fun x9 () Real)
(declare-fun x10 () Real)
(declare-fun x11 () Real)
(declare-fun x12 () Real)
(declare-fun x13 () Real)
(declare-fun x14 () Real)
(declare-fun x15 () Real)
(declare-fun x16 () Real)
(declare-fun x17 () Real)
(declare-fun x18 () Real)
(declare-fun x19 () Real)
(declare-fun x20 () Real)
(declare-fun x21 () Real)
(declare-fun x22 () Real)
(declare-fun x23 () Real)
(declare-fun x24 () Real)
(declare-fun x25 () Real)
(declare-fun x26 () Real)
(declare-fun x27 () Real)
(declare-fun x28 () Real)
(declare-fun x29 () Real)
(declare-fun x30 () Real)
(declare-fun x31 () Real)
(declare-fun x32 () Real)
(declare-fun x33 () Real)
(declare-fun x34 () Real)
(declare-fun x35 () Real)
(declare-fun x36 () Real)
(declare-fun x37 () Real)
(declare-fun x38 () Real)
(declare-fun x39 () Real)
(declare-fun x40 () Real)
(declare-fun x41 () Real)
(declare-fun x42 () Real)
(declare-fun x43 () Real)
(declare-fun x44 () Real)
(declare-fun x45 () Real)
(declare-fun x46 () Real)
(declare-fun x47 () Real)
(declare-fun x48 () Real)
(declare-fun x49 () Real)
(declare-fun f0_1 (Real) Real)
(declare-fun f0_2 (Real Real) Real)
(declare-fun f0_3 (Real Real Real) Real)
(declare-fun f0_4 (Real Real Real Real) Real)
(declare-fun P0 () Bool)
(declare-fun P1 () Bool)
(declare-fun P2 () Bool)
(declare-fun P3 () Bool)
(declare-fun P4 () Bool)
(declare-fun P5 () Bool)
(declare-fun P6 () Bool)
(declare-fun P7 () Bool)
(declare-fun P8 () Bool)
(declare-fun P9 () Bool)
(declare-fun P10 () Bool)
(declare-fun P11 () Bool)
(declare-fun P12 () Bool)
(declare-fun P13 () Bool)
(declare-fun P14 () Bool)
(declare-fun P15 () Bool)
(declare-fun P16 () Bool)
(declare-fun P17 () Bool)
(declare-fun P18 () Bool)
(declare-fun P19 () Bool)
(declare-fun P20 () Bool)
(declare-fun P21 () Bool)
(declare-fun P22 () Bool)
(declare-fun P23 () Bool)
(declare-fun P24 () Bool)
(declare-fun P25 () Bool)
(declare-fun P26 () Bool)
(declare-fun P27 () Bool)
(declare-fun P28 () Bool)
(declare-fun P29 () Bool)
(declare-fun P30 () Bool)
(declare-fun P31 () Bool)
(declare-fun P32 () Bool)
(declare-fun P33 () Bool)
(declare-fun P34 () Bool)
(declare-fun P35 () Bool)
(declare-fun P36 () Bool)
(declare-fun P37 () Bool)
(declare-fun P38 () Bool)
(declare-fun P39 () Bool)
(declare-fun P40 () Bool)
(declare-fun P41 () Bool)
(declare-fun P42 () Bool)
(declare-fun P43 () Bool)
(declare-fun P44 () Bool)
(declare-fun P45 () Bool)
(declare-fun P46 () Bool)
(declare-fun P47 () Bool)
(declare-fun P48 () Bool)
(declare-fun P49 () Bool)
(assert (let ((?v_53 (distinct (+ (- (* 26 x28) (* 6 x8)) (* 11 x46)) 2)) (?v_33 (< (- (+ (* 5 x35) (* 17 x20)) (* 18 x25)) 17)) (?v_17 (* 26 x44)) (?v_152 (<= (- (+ (* 13 x24) (* 9 x45)) (* 16 x30)) 6)) (?v_10 (* 18 x44)) (?v_182 (<= (- (- (* 3 x5) (* 14 x13)) (* 10 x7)) 0)) (?v_2 (* 10 x1)) (?v_117 (< (+ (- (* 2 x13) (* 10 x17)) (* 20 x23)) 14)) (?v_173 (f0_1 x11))) (let ((?v_207 (= x20 ?v_173)) (?v_36 (f0_1 x7))) (let ((?v_124 (= (f0_2 x48 x25) ?v_36)) (?v_74 (distinct (f0_2 x32 x26) x46)) (?v_176 (distinct x27 x21)) (?v_130 (distinct (f0_1 x35) (f0_2 x7 x43))) (?v_129 (distinct x18 (f0_2 x42 x15))) (?v_89 (f0_2 x21 x23))) (let ((?v_166 (= ?v_89 (f0_1 x4))) (?v_211 (= (f0_1 x14) (f0_1 x34))) (?v_208 (distinct (f0_1 x42) (f0_2 x11 x26))) (?v_56 (distinct x23 x15)) (?v_135 (distinct (f0_1 x28) x4)) (?v_0 (= (f0_1 x27) (f0_2 x37 x46))) (?v_109 (distinct x49 x39)) (?v_11 (f0_1 x8))) (let ((?v_76 (distinct x23 ?v_11)) (?v_29 (f0_1 x44))) (let ((?v_134 (distinct x37 ?v_29)) (?v_111 (= (f0_2 x23 x15) (f0_2 x24 x34))) (?v_133 (distinct ?v_11 x28)) (?v_47 (f0_1 x47))) (let ((?v_31 (= (f0_2 x42 x43) ?v_47)) (?v_8 (f0_1 x46))) (let ((?v_57 (= x35 ?v_8)) (?v_198 (distinct x22 (f0_2 x28 x37))) (?v_30 (distinct (f0_2 x11 x17) ?v_29)) (?v_156 (f0_1 x0))) (let ((?v_218 (= (f0_2 x18 x38) ?v_156)) (?v_3 (= (f0_1 x12) (f0_1 x26))) (?v_115 (= x12 ?v_89)) (?v_139 (= x19 (f0_1 x49))) (?v_234 (distinct x34 (f0_1 x3))) (?v_12 (distinct (f0_2 x15 x14) x43)) (?v_107 (distinct (f0_2 x3 x45) ?v_47)) (?v_70 (distinct x4 (f0_2 x20 x9))) (?v_73 (= (f0_2 x25 x14) (f0_2 x6 x39))) (?v_39 (distinct ?v_8 (f0_1 x29))) (?v_18 (= (f0_1 x21) (f0_2 x23 x11))) (?v_178 (distinct x47 x24)) (?v_137 (distinct (f0_1 x24) (f0_2 x23 x33))) (?v_46 (distinct ?v_11 x35)) (?v_195 (= x24 (f0_2 x36 x38))) (?v_15 (f0_1 x17))) (let ((?v_51 (= ?v_15 ?v_173)) (?v_144 (= x29 (f0_2 x26 x12))) (?v_60 (= x14 (f0_2 x47 x29))) (?v_67 (distinct x27 ?v_8)) (?v_151 (= (f0_2 x22 x11) ?v_15)) (?v_105 (= (f0_2 x36 x6) (f0_2 x40 x43))) (?v_122 (distinct x27 ?v_47)) (?v_5 (distinct (f0_2 x45 x37) (f0_2 x42 x10))) (?v_77 (distinct (f0_2 x31 x1) x4)) (?v_147 (= (f0_1 x13) x18)) (?v_71 (= ?v_36 (f0_2 x27 x6))) (?v_6 (= ?v_156 x36)) (?v_62 (= (f0_2 x29 x39) (f0_2 x46 x41))) (?v_120 (= (f0_2 x45 x19) (f0_2 x7 x21))) (?v_225 (not P15)) (?v_35 (not ?v_208)) (?v_14 (not P8))) (let ((?v_65 (not ?v_5)) (?v_93 (not ?v_77)) (?v_165 (not P18)) (?v_188 (not P36)) (?v_121 (not ?v_135)) (?v_44 (not P32)) (?v_126 (not P3)) (?v_78 (not ?v_6)) (?v_13 (not ?v_178)) (?v_149 (not P0)) (?v_118 (not ?v_39)) (?v_143 (not P33)) (?v_82 (not ?v_12)) (?v_146 (not ?v_109)) (?v_45 (not P26)) (?v_58 (not P5)) (?v_256 (not P1)) (?v_23 (not P41)) (?v_215 (not P16)) (?v_192 (not P38)) (?v_119 (not ?v_151)) (?v_96 (not P37)) (?v_43 (not ?v_18)) (?v_175 (not P12)) (?v_50 (not P21)) (?v_22 (not P28)) (?v_159 (not ?v_71)) (?v_21 (not P42)) (?v_153 (not ?v_139)) (?v_116 (not P6)) (?v_72 (not P40)) (?v_248 (not ?v_31)) (?v_59 (not ?v_30)) (?v_37 (not P11)) (?v_186 (not ?v_211)) (?v_63 (not P45)) (?v_183 (not ?v_33)) (?v_180 (not ?v_124)) (?v_227 (not P13)) (?v_157 (not P47)) (?v_108 (not P14)) (?v_112 (not P10)) (?v_84 (not ?v_122)) (?v_132 (not ?v_117)) (?v_193 (not ?v_51)) (?v_238 (not ?v_53)) (?v_243 (not ?v_57)) (?v_106 (not ?v_0)) (?v_64 (not P44)) (?v_185 (not P39)) (?v_81 (not P19)) (?v_150 (not P27)) (?v_95 (not P48)) (?v_140 (not ?v_166)) (?v_189 (not ?v_67)) (?v_164 (not ?v_73)) (?v_103 (not ?v_74)) (?v_161 (not ?v_176)) (?v_104 (not P17)) (?v_114 (not P23)) (?v_223 (not P35)) (?v_155 (not ?v_105)) (?v_171 (not ?v_107)) (?v_169 (not ?v_111)) (?v_196 (not ?v_120)) (?v_148 (not P30)) (?v_244 (not ?v_115)) (?v_200 (not ?v_129)) (?v_163 (not ?v_234)) (?v_160 (not ?v_130)) (?v_141 (not ?v_133)) (?v_145 (not P4)) (?v_252 (not P9)) (?v_187 (not ?v_134)) (?v_158 (not ?v_137)) (?v_194 (not ?v_147)) (?v_168 (not ?v_76)) (?v_174 (not P25)) (?v_206 (not P43)) (?v_219 (not ?v_144)) (?v_203 (not P49)) (?v_190 (not ?v_60)) (?v_213 (not ?v_207)) (?v_257 (not P20)) (?v_210 (not P29)) (?v_204 (not P7)) (?v_212 (not P2)) (?v_191 (not P24)) (?v_230 (not ?v_152)) (?v_202 (not ?v_198)) (?v_214 (not P31)) (?v_216 (not ?v_56)) (?v_236 (not P34)) (?v_250 (not P22)) (?v_221 (not ?v_62)) (?v_226 (not ?v_218)) (?v_240 (not ?v_195)) (?v_254 (not ?v_182)) (?v_239 (not P46)) (?v_251 (not ?v_3)) (?v_75 (<= (- (- 0 (* 27 x46)) 0) 13))) (let ((?v_34 (not ?v_75)) (?v_85 (= (+ (* 20 x11) x43) 0)) (?v_94 (<= (+ (* 15 x49) (* 25 x7) (* 26 x3)) 24)) (?v_49 (<= (+ (* 3 x49) (* 27 x35) (* 23 x32)) 9))) (let ((?v_83 (not ?v_49)) (?v_184 (< (+ (* 26 x14) (* 9 x21) (* 21 x1)) 12)) (?v_92 (<= (+ (* 12 x26) (* 21 x25) (* 18 x23)) 22)) (?v_87 (not ?v_85))) (let ((?v_102 (not ?v_92)) (?v_197 (not ?v_94)) (?v_224 (not ?v_184)) (?v_4 (distinct (+ (* (- 4) x48) (* 2 x39) (* 16 x12)) 14))) (let ((?v_123 (not ?v_4)) (?v_172 (<= (- (- (* (- 5) x34) (* 13 x11)) (* 5 x22)) 22)) (?v_20 (< (+ (- (* 25 x31) (* 10 x20)) (* 5 x15)) (- 4))) (?v_19 (<= (- (- ?v_2 (* 27 x13)) (* 26 x18)) (- 23)))) (let ((?v_86 (not ?v_19)) (?v_40 (< (- (+ (* (- 22) x4) (* 9 x22)) 0) (- 19)))) (let ((?v_16 (not ?v_40)) (?v_1 (<= (- (- (* (- 7) x4) x16) (* 2 x10)) 24))) (let ((?v_228 (not ?v_1)) (?v_48 (<= (- (- x40 (* 13 x25)) (* 2 x31)) (- 29))) (?v_205 (< (- (- (* 3 x46) ?v_2) 0) (- 20))) (?v_179 (<= (- (- (* 23 x36) (* 12 x5)) (* 6 x18)) (- 18)))) (let ((?v_27 (not ?v_179)) (?v_68 (< (+ (- (* (- 1) x27) (* 21 x31)) (* 15 x41)) (- 7)))) (let ((?v_38 (not ?v_68)) (?v_9 (<= (- (- (* (- 8) x28) (* 18 x10)) (* 22 x2)) 12)) (?v_28 (< (- (+ (* (- 5) x11) (* 3 x41)) (* 11 x6)) 13)) (?v_32 (<= (- (+ (* 13 x18) (* 5 x14)) ?v_10) (- 17))) (?v_7 (<= (+ (* 12 x1) (* 16 x8) (* 26 x15)) (- 2))) (?v_201 (= (+ (* 3 x7) (* 8 x27) (* 5 x21)) (- 17)))) (let ((?v_99 (not ?v_201)) (?v_26 (< (- (+ (* (- 2) x28) (* 18 x12)) (* 25 x25)) 12)) (?v_247 (not ?v_9)) (?v_113 (= (+ (* (- 21) x21) (* 17 x18) ?v_10) 5)) (?v_136 (<= (- (+ (* (- 3) x1) (* 14 x7)) (* 6 x21)) 3))) (let ((?v_25 (not ?v_136)) (?v_66 (< (- (- (* (- 17) x23) (* 3 x48)) (* 26 x16)) 3)) (?v_90 (<= (- (+ (* (- 21) x15) ?v_17) 0) 2))) (let ((?v_41 (not ?v_90)) (?v_79 (= (+ (- (* (- 21) x23) (* 11 x28)) (* 11 x16)) 20)) (?v_54 (= (- (+ (* (- 6) x36) (* 23 x38)) x35) (- 16))) (?v_42 (< (+ (* (- 21) x46) (* 23 x24) (* 23 x4)) 2)) (?v_97 (<= (+ (* 25 x37) ?v_17 (* 11 x23)) (- 17))) (?v_24 (= (- (+ (* (- 1) x13) (* 16 x9)) (* 15 x27)) (- 26))) (?v_231 (<= (+ (* 24 x7) (* 27 x20) (* 6 x23)) (- 22)))) (let ((?v_80 (not ?v_231)) (?v_177 (not ?v_20)) (?v_88 (< (+ (- (* (- 1) x37) (* 19 x38)) x15) (- 21))) (?v_98 (<= (- (+ (* (- 9) x15) (* 24 x18)) (* 2 x49)) 23)) (?v_52 (not ?v_42)) (?v_110 (not ?v_48)) (?v_170 (= (+ (* 4 x40) (* 3 x23) (* 2 x12)) (- 22))) (?v_61 (< (+ (- (* 18 x38) (* 24 x37)) (* 16 x31)) (- 2)))) (let ((?v_260 (not ?v_61)) (?v_55 (not ?v_54)) (?v_217 (not ?v_7)) (?v_69 (<= (+ (* (- 20) x8) (* 15 x43) (* 9 x34)) (- 13)))) (let ((?v_91 (not ?v_69)) (?v_100 (not ?v_28)) (?v_181 (not ?v_88)) (?v_128 (not ?v_26)) (?v_125 (< (+ (- (* 12 x37) (* 17 x5)) (* 21 x35)) (- 23))) (?v_101 (not ?v_97)) (?v_241 (not ?v_98)) (?v_167 (< (+ (- (* (- 22) x36) (* 2 x29)) (* 16 x34)) (- 6)))) (let ((?v_127 (not ?v_167)) (?v_245 (< (+ (- (* 16 x11) (* 15 x28)) (* 5 x6)) (- 25)))) (let ((?v_142 (not ?v_245)) (?v_154 (not ?v_113)) (?v_138 (not ?v_125)) (?v_131 (< (- (- (* (- 15) x23) x47) (* 19 x15)) 3))) (let ((?v_162 (not ?v_131)) (?v_199 (not ?v_79)) (?v_253 (<= (+ (- (* 11 x14) (* 20 x19)) (* 23 x33)) (- 27)))) (let ((?v_209 (not ?v_253)) (?v_242 (< (+ (- (* (- 23) x26) (* 5 x45)) (* 22 x48)) 20))) (let ((?v_222 (not ?v_242)) (?v_220 (< (- (+ (* (- 2) x43) (* 2 x28)) (* 11 x27)) 29)) (?v_258 (not ?v_24)) (?v_233 (< (+ (- (* (- 3) x29) (* 3 x3)) (* 12 x7)) (- 16)))) (let ((?v_232 (not ?v_233)) (?v_235 (or ?v_123 ?v_221)) (?v_237 (not ?v_170)) (?v_229 (not ?v_220)) (?v_255 (not ?v_205)) (?v_246 (not ?v_66)) (?v_249 (not ?v_32)) (?v_259 (or ?v_202 ?v_55))) (and (and (and (and (and (and (and (and (and (and (and (and (and (and (and (and (and (and (and (and (and (and (and (and (and (and (and (and (and (and (and (and (and (and (and (and (and (and (and (and (and (and (and (and (and (and (and (and (and (and (and (and (and (and (and (and (and (and (and (and (and (and (and (and (and (and (and (and (and (and (and (and (and (and (and (and (and (and (and (and (and (and (and (and (and (and (and (and (and (and (and (and (and (and (and (and (and (and (and (and (and (and (and (and (and (and (and (and (and (and (and (and (and (and (and (and (and (and (and (and (and (and (and (and (and (and (and (and (and (and (and (and (and (and (and (and (and (and (and (and (and (and (and (and (and (and (and (and (and (and (and (and (and (and (and (and (and (and (and (and (and (and (and (and (and (and (and (and (and (and (and (and (and (and (and (and (and (and (and (and (and (and (and (and (and (and (and (and (and (and (and (and (and (and (and (and (and (and (and (and (and (and (and (and (and (and (and (and (and (and (and (and (and (and (and (and (and (and (and (and (and (and (and (and (and (and (and (and (and (and (and (and (and (and (and (and (and (and (and (and (and (and (and (and (and (and (and (and (and (and (and (and (and (and (and (and (and (and (and (and (and (and (and (and (and (and (and (and (and (and (and (and (and (and (and (and (and (and (and (and (and (and (and (and (and (and (and (and (and (and (and (and (and (and (and (and (and (and (and (and (and (and (and (and (and (and (and (and (and (and (and (and (and (and (and (and (and (and (and (and (and (and (and (and (and (and (and (and (and (and (and (and (and (and (and (and (and (and (and (and (and (and (and (and (and (and (and (and (and (and (and (and (and (and (and (and (and (and (and (and (and (and (and (and (and (and (and (and (and (and (and (and (and (and (and (and (and (and (and (and (and (and (and (and (and (and (and (and (and (and (and (and (and (and (and (and (and (and (and (and (and (and (and (and (and (and (and (and (and (and (and (and (and (and (and (and (and (and (and (and (and (and (and (and (and (and (and (and (and (and (and (and (and (and (and (and (and (and (and (and (and (and (and (and (and (and (and (and (and (and (and (and (and (and (and (and (and (and (and (and (and (and (and (and (and (and (and (and (and (and (and (and (and (and (and (and (and (and (and (and (and (and (and (and (and (and (and (and (and (and (and (and (and (and (and (and (and (and (and (and (and (and (and (and (and (and (and (and (and (and (and (and (and (and (and (and (and (and (and (and (and (and (and (and (and (and (and (and (and (and (and (and (and (and (and (and (and (and (and (and (and (and (and (and (and (and (and (and (and (and (and (and (and (and (and (and (and (and (and (and (and (and (and (and (and (and (and (and (and (and (and (and (and (and (and (and (and (and (and (and (and (and (and (and (and (and (and (and (and (and (and (and (and (and (and (and (and (and (and (or (or ?v_123 ?v_70) ?v_172) (or (or ?v_137 ?v_20) ?v_34)) (or (or ?v_86 P5) ?v_16)) (or (or ?v_53 ?v_225) ?v_35)) (or (or P27 ?v_3) ?v_228)) (or (or ?v_14 P46) P20)) (or (or ?v_65 ?v_6) P37)) (or (or P41 ?v_0) ?v_76)) (or (or P27 ?v_111) ?v_85)) (or (or ?v_48 ?v_93) ?v_0)) (or (or ?v_62 ?v_1) ?v_165)) (or (or ?v_205 ?v_3) ?v_134)) (or (or P49 ?v_27) ?v_38)) (or (or ?v_56 ?v_188) ?v_4)) (or (or P27 ?v_121) ?v_9)) (or (or ?v_44 ?v_28) ?v_32)) (or (or ?v_7 ?v_99) P16)) (or (or ?v_26 ?v_5) ?v_57)) (or (or ?v_126 ?v_18) ?v_78)) (or (or ?v_13 ?v_7) ?v_149)) (or (or P46 ?v_118) ?v_51)) (or (or ?v_73 ?v_143) ?v_247)) (or (or ?v_82 ?v_113) P41)) (or (or ?v_146 ?v_25) (not ?v_46))) (or (or ?v_7 ?v_45) P7)) (or (or ?v_58 P43) ?v_12)) (or (or ?v_256 ?v_13) ?v_66)) (or (or P2 ?v_41) ?v_79)) (or (or ?v_23 ?v_14) P5)) (or (or P11 ?v_215) ?v_192)) (or (or P21 P34) ?v_54)) (or (or ?v_119 ?v_42) ?v_96)) (or (or P38 ?v_16) ?v_97)) (or (or ?v_43 ?v_24) ?v_175)) (or (or ?v_50 ?v_22) ?v_159)) (or (or ?v_130 ?v_94) ?v_21)) (or (or ?v_80 ?v_19) ?v_153)) (or (or ?v_177 ?v_116) P47)) (or (or ?v_21 ?v_22) ?v_23)) (or (or P38 P6) P7)) (or (or ?v_20 ?v_88) ?v_24)) (or (or ?v_25 ?v_26) ?v_72)) (or (or ?v_248 P18) ?v_33)) (or (or ?v_27 ?v_28) ?v_59)) (or (or ?v_30 ?v_83) ?v_16)) (or (or P32 ?v_37) P9)) (or (or ?v_186 P35) P11)) (or (or P43 ?v_31) ?v_63)) (or (or ?v_32 ?v_183) ?v_34)) (or (or ?v_35 P39) P41)) (or (or ?v_180 ?v_227) P8)) (or (or ?v_157 P7) ?v_37)) (or (or ?v_98 P20) ?v_108)) (or (or ?v_38 ?v_14) ?v_39)) (or (or ?v_40 ?v_41) ?v_52)) (or (or ?v_43 ?v_112) P8)) (or (or ?v_44 ?v_45) P25)) (or (or ?v_46 ?v_84) ?v_60)) (or (or ?v_74 ?v_12) ?v_110)) (or (or ?v_49 ?v_132) ?v_31)) (or (or ?v_50 ?v_193) ?v_170)) (or (or ?v_16 ?v_52) ?v_260)) (or (or ?v_238 ?v_55) ?v_67)) (or (or P22 ?v_55) P39)) (or (or ?v_56 ?v_243) ?v_106)) (or (or ?v_64 ?v_58) ?v_59)) (or (or ?v_60 P49) ?v_44)) (or (or ?v_61 ?v_185) P4)) (or (or P4 ?v_184) ?v_81)) (or (or ?v_62 ?v_63) ?v_40)) (or (or ?v_150 ?v_64) ?v_95)) (or (or P29 P44) ?v_65)) (or (or P23 ?v_66) P13)) (or (or ?v_140 ?v_189) ?v_217)) (or (or ?v_40 ?v_45) ?v_68)) (or (or ?v_69 ?v_13) ?v_92)) (or (or ?v_91 ?v_70) ?v_100)) (or (or ?v_71 ?v_72) P14)) (or (or ?v_107 ?v_164) ?v_103)) (or (or ?v_16 ?v_161) ?v_75)) (or (or ?v_76 ?v_12) ?v_33)) (or (or ?v_77 ?v_78) P18)) (or (or ?v_79 ?v_104) ?v_80)) (or (or ?v_54 ?v_81) P34)) (or (or ?v_82 ?v_19) ?v_83)) (or (or ?v_133 ?v_144) ?v_84)) (or (or ?v_54 ?v_87) P43)) (or (or ?v_53 ?v_86) P43)) (or (or ?v_27 ?v_114) ?v_87)) (or (or ?v_34 ?v_181) ?v_128)) (or (or ?v_115 ?v_125) ?v_87)) (or (or ?v_105 ?v_90) ?v_81)) (or (or ?v_91 ?v_198) ?v_102)) (or (or ?v_45 ?v_91) ?v_93)) (or (or ?v_4 P20) ?v_94)) (or (or ?v_95 ?v_33) ?v_28)) (or (or ?v_96 ?v_51) ?v_101)) (or (or ?v_241 ?v_99) ?v_127)) (or (or P43 P8) ?v_100)) (or (or ?v_223 ?v_101) ?v_49)) (or (or ?v_102 ?v_20) ?v_103)) (or (or ?v_104 ?v_155) ?v_106)) (or (or ?v_76 ?v_57) ?v_171)) (or (or ?v_108 ?v_109) ?v_110)) (or (or ?v_169 ?v_60) P26)) (or (or ?v_77 ?v_98) ?v_112)) (or (or ?v_152 ?v_147) ?v_196)) (or (or ?v_148 ?v_65) P35)) (or (or P23 P45) ?v_142)) (or (or ?v_112 ?v_113) ?v_114)) (or (or ?v_9 ?v_154) ?v_244)) (or (or ?v_116 ?v_200) ?v_117)) (or (or ?v_42 ?v_118) P31)) (or (or ?v_119 ?v_102) ?v_25)) (or (or ?v_197 ?v_120) ?v_121)) (or (or ?v_122 ?v_58) ?v_41)) (or (or ?v_123 ?v_78) ?v_96)) (or (or ?v_82 ?v_86) ?v_41)) (or (or ?v_163 ?v_124) ?v_138)) (or (or ?v_37 ?v_126) ?v_127)) (or (or ?v_128 ?v_129) ?v_78)) (or (or ?v_160 ?v_162) ?v_104)) (or (or ?v_131 ?v_79) ?v_132)) (or (or ?v_34 ?v_141) ?v_123)) (or (or ?v_145 ?v_54) P32)) (or (or ?v_252 ?v_21) ?v_187)) (or (or ?v_135 P10) ?v_136)) (or (or ?v_158 ?v_104) ?v_45)) (or (or P10 ?v_119) ?v_48)) (or (or ?v_108 ?v_138) ?v_139)) (or (or ?v_140 ?v_141) ?v_142)) (or (or ?v_129 P22) ?v_0)) (or (or ?v_143 ?v_130) ?v_144)) (or (or ?v_145 ?v_146) ?v_21)) (or (or ?v_0 P44) ?v_194)) (or (or P14 ?v_142) ?v_148)) (or (or ?v_97 ?v_104) ?v_79)) (or (or ?v_28 ?v_7) ?v_149)) (or (or ?v_150 ?v_50) ?v_151)) (or (or ?v_136 ?v_152) ?v_153)) (or (or ?v_199 ?v_93) ?v_18)) (or (or ?v_87 P7) P5)) (or (or ?v_53 ?v_168) P42)) (or (or P41 ?v_129) ?v_149)) (or (or ?v_20 ?v_22) ?v_112)) (or (or ?v_145 ?v_154) ?v_174)) (or (or P11 ?v_155) ?v_218)) (or (or ?v_157 P2) ?v_30)) (or (or ?v_135 P3) ?v_53)) (or (or ?v_158 ?v_91) P21)) (or (or ?v_65 ?v_159) ?v_121)) (or (or ?v_83 ?v_53) ?v_160)) (or (or ?v_9 ?v_161) P30)) (or (or P17 ?v_143) ?v_157)) (or (or ?v_123 ?v_61) ?v_206)) (or (or ?v_162 ?v_219) P36)) (or (or ?v_117 ?v_141) ?v_3)) (or (or ?v_22 ?v_195) ?v_30)) (or (or ?v_163 ?v_164) P19)) (or (or ?v_203 ?v_43) ?v_165)) (or (or P38 ?v_147) ?v_162)) (or (or ?v_43 ?v_166) ?v_4)) (or (or ?v_62 ?v_3) ?v_100)) (or (or ?v_157 ?v_13) ?v_167)) (or (or P34 ?v_43) ?v_40)) (or (or ?v_168 ?v_91) ?v_12)) (or (or ?v_106 ?v_42) ?v_169)) (or (or ?v_147 ?v_170) P27)) (or (or ?v_41 ?v_171) ?v_134)) (or (or ?v_20 ?v_138) ?v_4)) (or (or P8 ?v_170) ?v_190)) (or (or ?v_172 ?v_41) ?v_182)) (or (or ?v_80 P2) ?v_213)) (or (or ?v_30 P44) ?v_174)) (or (or P19 ?v_103) ?v_71)) (or (or ?v_134 ?v_42) ?v_144)) (or (or ?v_175 ?v_20) ?v_161)) (or (or ?v_126 P46) ?v_136)) (or (or ?v_65 ?v_143) ?v_176)) (or (or P37 ?v_257) P47)) (or (or ?v_110 ?v_210) ?v_153)) (or (or ?v_6 ?v_18) ?v_74)) (or (or ?v_55 ?v_177) ?v_122)) (or (or P44 ?v_110) ?v_178)) (or (or ?v_20 ?v_62) ?v_169)) (or (or ?v_59 ?v_147) ?v_204)) (or (or P24 ?v_88) ?v_172)) (or (or ?v_179 ?v_138) ?v_180)) (or (or ?v_61 ?v_181) P24)) (or (or ?v_182 ?v_38) ?v_183)) (or (or ?v_184 ?v_209) ?v_91)) (or (or ?v_185 ?v_186) ?v_222)) (or (or ?v_159 ?v_28) ?v_138)) (or (or ?v_44 P29) ?v_187)) (or (or ?v_91 ?v_188) ?v_105)) (or (or P38 ?v_178) ?v_144)) (or (or P23 ?v_45) ?v_189)) (or (or ?v_37 P21) ?v_177)) (or (or ?v_212 ?v_191) ?v_16)) (or (or P11 ?v_190) ?v_191)) (or (or ?v_122 ?v_160) ?v_144)) (or (or ?v_230 ?v_87) ?v_3)) (or (or ?v_5 ?v_142) ?v_102)) (or (or ?v_92 ?v_192) ?v_193)) (or (or ?v_194 ?v_144) P40)) (or (or ?v_195 ?v_145) ?v_99)) (or (or ?v_121 ?v_122) ?v_0)) (or (or ?v_196 ?v_197) ?v_103)) (or (or ?v_180 ?v_172) P21)) (or (or ?v_23 ?v_88) ?v_180)) (or (or ?v_63 ?v_179) ?v_12)) (or (or ?v_120 ?v_61) ?v_195)) (or (or ?v_68 ?v_86) P8)) (or (or P8 P22) ?v_202)) (or (or ?v_127 ?v_199) P3)) (or (or ?v_97 ?v_77) ?v_172)) (or (or ?v_40 ?v_174) ?v_163)) (or (or ?v_164 P42) ?v_103)) (or (or P35 P15) ?v_135)) (or (or P10 ?v_200) P4)) (or (or ?v_214 ?v_65) ?v_185)) (or (or ?v_201 ?v_183) ?v_19)) (or (or P13 P17) ?v_129)) (or (or ?v_73 ?v_181) ?v_23)) (or (or ?v_216 ?v_86) ?v_135)) (or (or ?v_192 ?v_148) ?v_12)) (or (or ?v_147 ?v_168) ?v_130)) (or (or ?v_91 ?v_202) ?v_203)) (or (or P39 ?v_12) ?v_5)) (or (or ?v_135 ?v_197) P12)) (or (or ?v_50 ?v_9) P43)) (or (or ?v_171 ?v_50) ?v_96)) (or (or ?v_103 ?v_9) P16)) (or (or ?v_236 P31) ?v_126)) (or (or ?v_151 P6) ?v_141)) (or (or ?v_54 ?v_140) ?v_105)) (or (or ?v_162 P47) ?v_19)) (or (or ?v_54 ?v_196) ?v_143)) (or (or ?v_191 ?v_204) ?v_154)) (or (or ?v_90 ?v_120) ?v_18)) (or (or ?v_84 ?v_142) ?v_18)) (or (or ?v_250 ?v_205) ?v_28)) (or (or ?v_206 ?v_142) P33)) (or (or ?v_168 ?v_207) ?v_208)) (or (or P33 ?v_209) P41)) (or (or ?v_208 ?v_210) ?v_56)) (or (or ?v_22 ?v_208) ?v_67)) (or (or P31 ?v_211) ?v_64)) (or (or ?v_212 P27) ?v_41)) (or (or P18 ?v_184) P30)) (or (or ?v_189 ?v_209) ?v_56)) (or (or ?v_49 P34) ?v_77)) (or (or ?v_74 ?v_224) P28)) (or (or ?v_213 ?v_134) ?v_50)) (or (or P26 ?v_211) ?v_136)) (or (or ?v_214 ?v_106) ?v_40)) (or (or ?v_116 ?v_180) ?v_40)) (or (or ?v_33 ?v_137) ?v_82)) (or (or ?v_105 ?v_46) ?v_149)) (or (or P31 P22) ?v_215)) (or (or P18 ?v_216) ?v_209)) (or (or P4 ?v_102) ?v_74)) (or (or ?v_153 ?v_51) ?v_57)) (or (or ?v_220 ?v_221) ?v_80)) (or (or ?v_169 ?v_126) ?v_75)) (or (or ?v_167 P46) ?v_217)) (or (or ?v_187 ?v_67) ?v_7)) (or (or ?v_210 P30) ?v_258)) (or (or ?v_232 ?v_114) ?v_53)) (or (or ?v_0 ?v_153) ?v_226)) (or (or ?v_216 ?v_48) ?v_43)) (or (or ?v_210 ?v_50) ?v_73)) (or (or P27 ?v_172) ?v_18)) (or (or ?v_22 ?v_219) ?v_105)) (or (or ?v_92 ?v_59) ?v_85)) (or (or ?v_101 ?v_40) ?v_57)) (or (or ?v_131 ?v_181) ?v_195)) (or (or ?v_60 ?v_220) ?v_110)) (or (or ?v_18 ?v_219) ?v_23)) (or ?v_235 ?v_44)) (or (or ?v_145 ?v_216) P32)) (or (or ?v_100 ?v_179) ?v_157)) (or (or ?v_222 ?v_223) ?v_210)) (or (or P24 ?v_68) ?v_196)) (or (or ?v_240 ?v_49) ?v_20)) (or (or ?v_150 P14) ?v_211)) (or (or P1 P41) ?v_149)) (or (or ?v_120 ?v_106) ?v_64)) (or (or P34 P12) ?v_139)) (or (or P17 ?v_141) ?v_84)) (or (or P46 ?v_237) P26)) (or (or ?v_118 ?v_76) P6)) (or (or ?v_56 ?v_100) P5)) (or (or ?v_127 P44) ?v_110)) (or (or ?v_88 P45) ?v_5)) (or (or ?v_23 ?v_33) ?v_128)) (or (or ?v_200 P32) ?v_143)) (or (or ?v_110 ?v_170) P41)) (or (or ?v_149 ?v_142) ?v_20)) (or (or ?v_131 ?v_224) ?v_212)) (or (or ?v_56 ?v_41) ?v_102)) (or (or P9 ?v_33) ?v_171)) (or (or ?v_57 ?v_254) ?v_225)) (or (or ?v_226 ?v_23) ?v_0)) (or (or P39 ?v_131) ?v_229)) (or (or ?v_154 ?v_114) ?v_216)) (or (or ?v_30 ?v_34) ?v_227)) (or (or ?v_25 ?v_120) ?v_174)) (or (or ?v_207 ?v_162) ?v_141)) (or (or ?v_188 ?v_195) ?v_13)) (or (or ?v_149 ?v_145) ?v_116)) (or (or P42 ?v_43) P22)) (or (or ?v_86 ?v_203) ?v_185)) (or (or P34 ?v_228) ?v_181)) (or (or ?v_106 ?v_114) ?v_12)) (or (or ?v_190 ?v_227) ?v_102)) (or (or P6 ?v_229) P44)) (or (or ?v_28 P21) ?v_81)) (or (or ?v_229 ?v_75) ?v_52)) (or (or ?v_99 P22) P19)) (or (or ?v_203 ?v_229) P42)) (or (or ?v_230 P30) ?v_209)) (or (or ?v_91 ?v_16) ?v_13)) (or (or ?v_231 ?v_45) ?v_176)) (or (or ?v_221 ?v_169) ?v_97)) (or (or P3 ?v_208) ?v_58)) (or (or ?v_67 ?v_159) ?v_168)) (or (or ?v_19 ?v_232) P26)) (or (or ?v_55 ?v_219) ?v_152)) (or (or P21 ?v_233) ?v_165)) (or (or ?v_134 P38) ?v_222)) (or (or ?v_207 ?v_174) ?v_75)) (or (or ?v_153 ?v_82) (not ?v_70))) (or (or ?v_161 ?v_176) ?v_199)) (or (or ?v_155 ?v_22) ?v_124)) (or (or ?v_91 ?v_196) ?v_255)) (or (or P25 P39) ?v_125)) (or (or ?v_119 ?v_38) ?v_185)) (or (or ?v_130 ?v_46) P43)) (or (or ?v_35 ?v_5) ?v_75)) (or (or ?v_126 ?v_93) P4)) (or (or ?v_82 ?v_9) ?v_186)) (or (or ?v_214 P14) ?v_130)) (or (or ?v_40 P42) ?v_220)) (or (or ?v_234 ?v_14) ?v_130)) (or (or ?v_140 ?v_52) P33)) (or (or ?v_90 ?v_221) ?v_211)) (or (or ?v_12 ?v_73) ?v_53)) (or (or ?v_3 ?v_80) ?v_182)) (or ?v_235 ?v_231)) (or (or ?v_49 ?v_178) ?v_54)) (or (or ?v_190 ?v_33) ?v_236)) (or (or ?v_149 ?v_20) ?v_168)) (or (or P43 ?v_38) ?v_181)) (or (or ?v_95 ?v_211) P37)) (or (or ?v_30 P35) ?v_237)) (or (or ?v_28 ?v_239) ?v_124)) (or (or ?v_21 P32) ?v_162)) (or (or P26 ?v_107) ?v_118)) (or (or ?v_238 ?v_25) P33)) (or (or ?v_40 ?v_32) ?v_45)) (or (or ?v_126 ?v_64) P47)) (or (or ?v_231 ?v_142) ?v_179)) (or (or ?v_148 ?v_75) ?v_91)) (or (or P12 P29) ?v_25)) (or (or ?v_6 ?v_21) ?v_80)) (or (or P9 ?v_203) ?v_92)) (or (or ?v_180 ?v_198) ?v_233)) (or (or ?v_203 ?v_73) P5)) (or (or ?v_233 ?v_142) ?v_178)) (or (or ?v_200 ?v_30) ?v_111)) (or (or P31 ?v_136) ?v_53)) (or (or ?v_140 P3) ?v_246)) (or (or ?v_18 ?v_31) ?v_87)) (or (or ?v_30 ?v_139) ?v_133)) (or (or ?v_125 ?v_222) ?v_114)) (or (or ?v_176 ?v_41) ?v_42)) (or (or ?v_219 ?v_145) ?v_125)) (or (or ?v_59 ?v_208) ?v_186)) (or (or ?v_239 P8) ?v_223)) (or (or ?v_240 ?v_58) ?v_18)) (or (or ?v_152 ?v_155) P37)) (or (or ?v_231 ?v_85) ?v_241)) (or (or ?v_37 ?v_242) ?v_128)) (or (or ?v_78 ?v_227) ?v_9)) (or (or ?v_98 ?v_0) ?v_231)) (or (or ?v_251 ?v_153) ?v_102)) (or (or P7 ?v_14) ?v_164)) (or (or P43 P32) ?v_133)) (or (or ?v_134 ?v_223) ?v_31)) (or (or ?v_51 ?v_167) ?v_238)) (or (or ?v_107 P30) ?v_233)) (or (or ?v_109 P8) ?v_106)) (or (or ?v_169 ?v_100) P44)) (or (or ?v_138 ?v_45) ?v_70)) (or (or ?v_243 P5) ?v_131)) (or (or ?v_23 ?v_93) P2)) (or (or ?v_244 ?v_212) P18)) (or (or ?v_174 ?v_222) ?v_184)) (or (or ?v_187 ?v_190) ?v_129)) (or (or ?v_62 ?v_18) P5)) (or (or ?v_41 P39) ?v_245)) (or (or ?v_182 P43) ?v_229)) (or (or P9 ?v_246) P8)) (or (or ?v_247 ?v_83) P44)) (or (or ?v_84 ?v_220) ?v_119)) (or (or P17 P3) ?v_210)) (or (or ?v_118 ?v_118) ?v_77)) (or (or ?v_139 ?v_229) ?v_130)) (or (or ?v_220 ?v_91) ?v_179)) (or (or ?v_55 ?v_31) ?v_12)) (or (or P25 P31) P47)) (or (or P49 P6) ?v_190)) (or (or ?v_153 ?v_64) ?v_159)) (or (or ?v_163 ?v_88) ?v_152)) (or (or ?v_65 ?v_227) ?v_86)) (or (or ?v_248 ?v_62) ?v_3)) (or (or ?v_172 ?v_64) P35)) (or (or ?v_67 ?v_166) P42)) (or (or P2 ?v_96) ?v_249)) (or (or ?v_133 ?v_186) P39)) (or (or ?v_22 ?v_118) ?v_76)) (or (or ?v_168 ?v_103) ?v_134)) (or (or ?v_27 ?v_220) ?v_69)) (or (or ?v_185 ?v_1) ?v_140)) (or (or ?v_39 ?v_78) ?v_149)) (or (or ?v_31 ?v_51) ?v_247)) (or (or ?v_72 ?v_140) ?v_30)) (or (or P7 ?v_182) ?v_218)) (or (or P41 ?v_147) ?v_123)) (or (or ?v_239 P33) ?v_132)) (or (or ?v_226 ?v_229) ?v_164)) (or (or P33 ?v_225) ?v_219)) (or (or ?v_62 ?v_28) ?v_185)) (or (or ?v_239 ?v_135) ?v_205)) (or (or P9 ?v_228) ?v_39)) (or (or ?v_101 ?v_59) ?v_104)) (or (or ?v_117 P29) ?v_144)) (or (or ?v_225 ?v_131) ?v_238)) (or (or P18 ?v_169) ?v_249)) (or (or ?v_147 ?v_0) ?v_123)) (or (or ?v_52 ?v_65) ?v_27)) (or (or ?v_174 ?v_190) ?v_49)) (or (or ?v_51 ?v_33) ?v_189)) (or (or ?v_33 P17) ?v_200)) (or (or ?v_201 ?v_88) P21)) (or (or ?v_130 ?v_96) ?v_239)) (or (or ?v_81 ?v_250) ?v_27)) (or (or ?v_66 ?v_45) ?v_4)) (or (or ?v_251 ?v_143) P48)) (or (or ?v_110 ?v_52) P15)) (or (or ?v_163 ?v_5) P33)) (or (or ?v_116 ?v_252) ?v_203)) (or (or ?v_73 ?v_161) ?v_53)) (or (or ?v_199 ?v_170) ?v_142)) (or (or ?v_72 ?v_133) ?v_229)) (or (or ?v_119 ?v_59) ?v_249)) (or (or P47 (not ?v_172)) P32)) (or (or ?v_253 ?v_183) ?v_88)) (or (or ?v_163 ?v_58) ?v_241)) (or (or ?v_207 ?v_234) P11)) (or (or ?v_241 ?v_206) P21)) (or (or ?v_78 ?v_198) ?v_97)) (or (or ?v_100 ?v_24) ?v_96)) (or (or ?v_254 ?v_172) ?v_245)) (or (or ?v_155 ?v_115) ?v_135)) (or (or ?v_147 ?v_77) ?v_221)) (or (or ?v_210 ?v_223) ?v_211)) (or ?v_259 P28)) (or (or ?v_121 P39) ?v_21)) (or (or ?v_242 ?v_105) P12)) (or (or ?v_255 ?v_35) ?v_51)) (or (or ?v_134 ?v_155) ?v_12)) (or (or ?v_186 ?v_186) P1)) (or (or P43 P45) ?v_91)) (or (or ?v_183 ?v_22) ?v_169)) (or (or ?v_152 ?v_95) ?v_180)) (or (or P4 ?v_78) ?v_125)) (or (or ?v_116 ?v_0) P24)) (or (or ?v_192 ?v_169) ?v_217)) (or (or ?v_193 ?v_74) ?v_102)) (or (or ?v_68 ?v_191) ?v_201)) (or (or ?v_242 ?v_186) ?v_22)) (or (or P33 ?v_51) P11)) (or (or ?v_179 P9) ?v_196)) (or (or ?v_46 ?v_244) P43)) (or (or ?v_240 ?v_105) ?v_207)) (or (or ?v_80 P29) P32)) (or (or ?v_16 ?v_37) P16)) (or (or ?v_45 ?v_92) ?v_104)) (or (or ?v_256 ?v_90) P12)) (or (or P19 ?v_44) ?v_82)) (or (or ?v_140 ?v_164) ?v_245)) (or (or ?v_100 ?v_95) ?v_96)) (or (or ?v_207 ?v_61) P6)) (or (or ?v_34 P41) ?v_182)) (or (or ?v_37 ?v_93) ?v_44)) (or (or ?v_200 ?v_224) P13)) (or (or ?v_169 ?v_63) ?v_67)) (or (or ?v_126 ?v_96) ?v_242)) (or (or ?v_239 ?v_55) P23)) (or (or ?v_122 ?v_144) ?v_145)) (or (or ?v_179 ?v_238) P27)) (or (or ?v_100 ?v_18) P6)) (or (or ?v_240 ?v_82) ?v_155)) (or (or ?v_65 P21) ?v_238)) (or (or P28 ?v_19) ?v_69)) (or (or ?v_53 P20) ?v_86)) (or (or ?v_7 ?v_185) P43)) (or (or ?v_86 ?v_219) ?v_237)) (or (or ?v_221 P14) ?v_144)) (or (or ?v_215 ?v_199) ?v_118)) (or (or ?v_125 ?v_211) ?v_103)) (or (or ?v_159 ?v_72) ?v_102)) (or (or ?v_227 ?v_159) P38)) (or (or ?v_251 ?v_245) ?v_212)) (or (or ?v_51 ?v_177) ?v_74)) (or (or ?v_28 ?v_97) ?v_257)) (or (or ?v_12 P16) ?v_51)) (or (or ?v_144 ?v_120) ?v_224)) (or (or ?v_202 ?v_39) ?v_77)) (or (or ?v_16 ?v_43) ?v_168)) (or (or P26 ?v_232) ?v_257)) (or (or ?v_37 P20) ?v_182)) (or (or ?v_125 ?v_43) ?v_182)) (or (or ?v_111 ?v_250) ?v_42)) (or (or ?v_43 ?v_70) P12)) (or (or P21 ?v_18) ?v_1)) (or (or ?v_93 ?v_91) ?v_232)) (or (or ?v_246 ?v_206) ?v_43)) (or (or ?v_191 ?v_42) ?v_76)) (or (or ?v_244 ?v_7) ?v_5)) (or (or ?v_217 P37) ?v_48)) (or (or ?v_174 ?v_200) ?v_207)) (or (or ?v_182 ?v_258) ?v_194)) (or (or ?v_195 ?v_63) ?v_28)) (or (or ?v_65 ?v_107) ?v_60)) (or (or P43 ?v_236) P22)) (or (or ?v_207 ?v_131) ?v_223)) (or (or P9 ?v_181) ?v_209)) (or (or ?v_34 P49) ?v_111)) (or (or ?v_220 ?v_231) ?v_46)) (or (or ?v_211 P37) ?v_209)) (or (or ?v_9 P2) ?v_210)) (or (or ?v_245 ?v_85) P13)) (or (or ?v_174 ?v_166) ?v_53)) (or (or ?v_148 ?v_42) P7)) (or (or ?v_52 ?v_218) ?v_50)) (or (or ?v_54 ?v_175) ?v_71)) (or (or ?v_214 ?v_219) ?v_168)) (or (or ?v_19 ?v_90) ?v_71)) (or (or ?v_228 ?v_122) ?v_258)) (or (or ?v_114 ?v_105) ?v_222)) (or (or ?v_141 ?v_174) P10)) (or (or ?v_134 ?v_253) ?v_196)) (or (or ?v_132 ?v_57) ?v_90)) (or (or ?v_159 ?v_136) P12)) (or (or ?v_168 P30) ?v_154)) (or (or ?v_143 P43) ?v_129)) (or (or ?v_32 P27) ?v_40)) (or (or ?v_220 P38) ?v_62)) (or (or ?v_183 ?v_197) P5)) (or (or ?v_164 ?v_44) ?v_49)) (or (or ?v_120 ?v_76) ?v_22)) (or (or ?v_124 ?v_249) P33)) (or (or ?v_68 ?v_255) ?v_115)) (or (or ?v_30 ?v_118) P29)) (or (or P46 ?v_18) ?v_249)) (or (or ?v_16 ?v_155) ?v_120)) (or (or ?v_251 P13) ?v_171)) (or (or ?v_149 P25) P28)) (or (or ?v_62 ?v_189) ?v_149)) (or (or ?v_230 ?v_99) ?v_40)) (or ?v_259 P21)) (or (or ?v_4 ?v_108) P3)) (or (or P15 ?v_58) ?v_21)) (or (or ?v_260 ?v_258) ?v_199)) (or (or ?v_187 ?v_98) ?v_140)) (or (or ?v_51 ?v_134) P30)) (or (or ?v_33 P26) P42)) (or (or ?v_180 ?v_138) ?v_161)) (or (or ?v_39 ?v_130) ?v_196)) (or (or ?v_245 P29) ?v_195)) (or (or ?v_80 ?v_175) ?v_4)) (or (or ?v_128 ?v_168) ?v_201)) (or (or P42 ?v_19) ?v_37)) (or (or P6 ?v_134) ?v_246)) (or (or ?v_198 ?v_93) ?v_86)) (or (or P47 P45) ?v_180)) (or (or ?v_198 P20) ?v_229)) (or (or ?v_76 P5) ?v_54)) (or (or P21 ?v_161) ?v_112)) (or (or ?v_203 ?v_199) ?v_231)) (or (or P29 ?v_139) ?v_143)) (or (or ?v_236 ?v_95) ?v_177)) (or (or ?v_16 ?v_85) ?v_206)) (or (or ?v_146 ?v_176) ?v_7)) (or (or ?v_37 ?v_224) P9)) (or (or ?v_19 ?v_45) P37)) (or (or ?v_243 ?v_79) ?v_0)))))))))))))))))))))))))))))))))))
(check-sat)
(exit)
